Set parameter TokenServer to value "hpc-licenses.hpcc.usc.edu"
Set parameter TimeLimit to value 3600
Gurobi Optimizer version 9.5.1 build v9.5.1rc2 (linux64)
Thread count: 20 physical cores, 20 logical processors, using up to 20 threads
Optimize a model with 14015 rows, 10581 columns and 64598 nonzeros
Model fingerprint: 0x33f23673
Variable types: 10514 continuous, 67 integer (67 binary)
Coefficient statistics:
  Matrix range     [1e+00, 1e+00]
  Objective range  [6e-03, 1e+00]
  Bounds range     [1e+00, 1e+00]
  RHS range        [1e+00, 1e+02]
Presolve removed 3086 rows and 3065 columns
Presolve time: 0.27s
Presolved: 10929 rows, 7516 columns, 59737 nonzeros
Variable types: 7456 continuous, 60 integer (60 binary)
Found heuristic solution: objective 280.8760973

Root relaxation: objective 2.888326e+02, 4658 iterations, 0.24 seconds (0.34 work units)

    Nodes    |    Current Node    |     Objective Bounds      |     Work
 Expl Unexpl |  Obj  Depth IntInf | Incumbent    BestBd   Gap | It/Node Time

     0     0  288.83258    0    8  280.87610  288.83258  2.83%     -    0s
H    0     0                     282.1452559  288.83258  2.37%     -    0s
     0     0  288.83258    0    7  282.14526  288.83258  2.37%     -    0s
H    0     0                     287.4354610  288.83258  0.49%     -    2s
     0     0  288.42105    0    4  287.43546  288.42105  0.34%     -    2s
     0     0  288.40177    0    6  287.43546  288.40177  0.34%     -    2s
     0     0  288.39875    0    6  287.43546  288.39875  0.34%     -    3s
     0     2  288.39875    0    6  287.43546  288.39875  0.34%     -    3s
    11     8  288.39875    4    6  287.43546  288.39875  0.34%   768    5s
H   52    25                     287.4420454  288.39875  0.33%   462    7s
H   83    34                     287.4576456  288.39875  0.33%   365    9s
   100    18  288.24517   10   10  287.45765  288.34699  0.31%   354   10s
   389     8  287.58015   27    5  287.45765  287.59301  0.05%   210   15s
*  402     5              28     287.5260747  287.52607  0.00%   207   15s

Cutting planes:
  Gomory: 1
  MIR: 8
  Flow cover: 9
  RLT: 7
  Relax-and-lift: 7

Explored 413 nodes (93492 simplex iterations) in 15.89 seconds (5.96 work units)
Thread count was 20 (of 20 available processors)

Solution count 6: 287.526 287.458 287.442 ... 280.876

Optimal solution found (tolerance 1.00e-04)
Best objective 2.875260746570e+02, best bound 2.875260746570e+02, gap 0.0000%



#########node  1
V2.1
#########node  2
V1.8
#########node  3
V1.7
#########node  4
0.02247191011235955,0.9775280898876405
#########node  5
1.0,0.0
#########node  6
0.0,1.0
#########node  7
1.0,0.0


Total Solving Time 16.708913564682007
obj value 287.52607465697037
Policy Regret train (Sum) 3.2075536416648722
Best Treatment Found train (%) 76.0
treatment classification acc train (%) 47.4
Policy Regret test (Sum) 29.940841690234077
Best Treatment Found test (%) 83.56
treatment classification acc test (%) 50.160000000000004
Set parameter TokenServer to value "hpc-licenses.hpcc.usc.edu"
Set parameter TimeLimit to value 3600
Gurobi Optimizer version 9.5.1 build v9.5.1rc2 (linux64)
Thread count: 20 physical cores, 20 logical processors, using up to 20 threads
Optimize a model with 14015 rows, 10581 columns and 64598 nonzeros
Model fingerprint: 0x33f23673
Variable types: 10514 continuous, 67 integer (67 binary)
Coefficient statistics:
  Matrix range     [1e+00, 1e+00]
  Objective range  [6e-03, 1e+00]
  Bounds range     [1e+00, 1e+00]
  RHS range        [1e+00, 1e+02]
Presolve removed 3086 rows and 3065 columns
Presolve time: 0.21s
Presolved: 10929 rows, 7516 columns, 59737 nonzeros
Variable types: 7456 continuous, 60 integer (60 binary)
Found heuristic solution: objective 280.8760973

Root relaxation: objective 2.888326e+02, 4658 iterations, 0.26 seconds (0.34 work units)

    Nodes    |    Current Node    |     Objective Bounds      |     Work
 Expl Unexpl |  Obj  Depth IntInf | Incumbent    BestBd   Gap | It/Node Time

     0     0  288.83258    0    8  280.87610  288.83258  2.83%     -    0s
H    0     0                     282.1452559  288.83258  2.37%     -    0s
     0     0  288.83258    0    7  282.14526  288.83258  2.37%     -    0s
H    0     0                     287.4354610  288.83258  0.49%     -    2s
     0     0  288.42105    0    4  287.43546  288.42105  0.34%     -    2s
     0     0  288.40177    0    6  287.43546  288.40177  0.34%     -    2s
     0     0  288.39875    0    6  287.43546  288.39875  0.34%     -    2s
     0     2  288.39875    0    6  287.43546  288.39875  0.34%     -    3s
     7     7  288.39875    3   12  287.43546  288.39875  0.34%   724    5s
H   52    25                     287.4420454  288.39875  0.33%   462    7s
    80    34  288.37321    9    8  287.44205  288.39875  0.33%   377   10s
H   83    34                     287.4576456  288.39875  0.33%   365   10s
   269    28  287.46190   17    3  287.45765  287.87207  0.14%   247   15s
*  402     5              28     287.5260747  287.52607  0.00%   207   18s

Cutting planes:
  Gomory: 1
  MIR: 8
  Flow cover: 9
  RLT: 7
  Relax-and-lift: 7

Explored 413 nodes (93492 simplex iterations) in 18.08 seconds (5.96 work units)
Thread count was 20 (of 20 available processors)

Solution count 6: 287.526 287.458 287.442 ... 280.876

Optimal solution found (tolerance 1.00e-04)
Best objective 2.875260746570e+02, best bound 2.875260746570e+02, gap 0.0000%



#########node  1
V2.1
#########node  2
V1.8
#########node  3
V1.7
#########node  4
0.02247191011235955,0.9775280898876405
#########node  5
1.0,0.0
#########node  6
0.0,1.0
#########node  7
1.0,0.0


Total Solving Time 18.961759328842163
obj value 287.52607465697037
Policy Regret train (Sum) 3.2075536416648722
Best Treatment Found train (%) 76.0
treatment classification acc train (%) 47.4
Policy Regret test (Sum) 29.940841690234077
Best Treatment Found test (%) 83.56
treatment classification acc test (%) 50.160000000000004
